02_FORMAL/tv/RIINA/Domains/FutureSecurity.tv.smt2
; SPDX-License-Identifier: MPL-2.0
; Copyright (c) 2026 The RIINA Authors.
; Auto-generated from 02_FORMAL/coq/domains/FutureSecurity.v (24 validations)
; Generated by scripts/generate-full-stack.py
;
; Translation Validation for FutureSecurity
; Layer 9: Verifies compiler backend preserves formal semantics.
; Each assertion checks source IR ≡ target code for a proven property.

(set-logic QF_LIA)
(set-option :produce-models true)

; IR node representation
(declare-sort IRNode 0)
(declare-sort TargetNode 0)

; kem_security_level: source semantics (matches Coq)
(declare-fun source_kem_security_level () Bool)
(declare-fun target_kem_security_level () Bool)
(assert (= source_kem_security_level target_kem_security_level))

; sig_security_level: source semantics (matches Coq)
(declare-fun source_sig_security_level () Bool)
(declare-fun target_sig_security_level () Bool)
(assert (= source_sig_security_level target_sig_security_level))

; symmetric_quantum_safe: source semantics (matches Coq)
(declare-fun source_symmetric_quantum_safe () Bool)
(declare-fun target_symmetric_quantum_safe () Bool)
(assert (= source_symmetric_quantum_safe target_symmetric_quantum_safe))

; pq_config_secure: source semantics (matches Coq)
(declare-fun source_pq_config_secure () Bool)
(declare-fun target_pq_config_secure () Bool)
(assert (= source_pq_config_secure target_pq_config_secure))

; vulnerable_to_shor: source semantics (matches Coq)
(declare-fun source_vulnerable_to_shor () Bool)
(declare-fun target_vulnerable_to_shor () Bool)
(assert (= source_vulnerable_to_shor target_vulnerable_to_shor))

; grover_effective_bits: source semantics (matches Coq)
(declare-fun source_grover_effective_bits () Bool)
(declare-fun target_grover_effective_bits () Bool)
(assert (= source_grover_effective_bits target_grover_effective_bits))

; did_robust: source semantics (matches Coq)
(declare-fun source_did_robust () Bool)
(declare-fun target_did_robust () Bool)
(assert (= source_did_robust target_did_robust))

; speculation_conservative: source semantics (matches Coq)
(declare-fun source_speculation_conservative () Bool)
(declare-fun target_speculation_conservative () Bool)
(assert (= source_speculation_conservative target_speculation_conservative))

; leakage_minimal: source semantics (matches Coq)
(declare-fun source_leakage_minimal () Bool)
(declare-fun target_leakage_minimal () Bool)
(assert (= source_leakage_minimal target_leakage_minimal))

; scm_comprehensive: source semantics (matches Coq)
(declare-fun source_scm_comprehensive () Bool)
(declare-fun target_scm_comprehensive () Bool)
(assert (= source_scm_comprehensive target_scm_comprehensive))

; composed_security_sound: source semantics (matches Coq)
(declare-fun source_composed_security_sound () Bool)
(declare-fun target_composed_security_sound () Bool)
(assert (= source_composed_security_sound target_composed_security_sound))

; key_rotation_apt_safe: source semantics (matches Coq)
(declare-fun source_key_rotation_apt_safe () Bool)
(declare-fun target_key_rotation_apt_safe () Bool)
(assert (= source_key_rotation_apt_safe target_key_rotation_apt_safe))

; cv_comprehensive: source semantics (matches Coq)
(declare-fun source_cv_comprehensive () Bool)
(declare-fun target_cv_comprehensive () Bool)
(assert (= source_cv_comprehensive target_cv_comprehensive))

; apt_resistance_adequate: source semantics (matches Coq)
(declare-fun source_apt_resistance_adequate () Bool)
(declare-fun target_apt_resistance_adequate () Bool)
(assert (= source_apt_resistance_adequate target_apt_resistance_adequate))

; tls_pq_safe: source semantics (matches Coq)
(declare-fun source_tls_pq_safe () Bool)
(declare-fun target_tls_pq_safe () Bool)
(assert (= source_tls_pq_safe target_tls_pq_safe))

; qkd_secure: source semantics (matches Coq)
(declare-fun source_qkd_secure () Bool)
(declare-fun target_qkd_secure () Bool)
(assert (= source_qkd_secure target_qkd_secure))

; qsn_secure: source semantics (matches Coq)
(declare-fun source_qsn_secure () Bool)
(declare-fun target_qsn_secure () Bool)
(assert (= source_qsn_secure target_qsn_secure))

; verification_strength: source semantics (matches Coq)
(declare-fun source_verification_strength () Bool)
(declare-fun target_verification_strength () Bool)
(assert (= source_verification_strength target_verification_strength))

; verification_rigorous: source semantics (matches Coq)
(declare-fun source_verification_rigorous () Bool)
(declare-fun target_verification_rigorous () Bool)
(assert (= source_verification_rigorous target_verification_rigorous))

; adversary_capability_level: source semantics (matches Coq)
(declare-fun source_adversary_capability_level () Bool)
(declare-fun target_adversary_capability_level () Bool)
(assert (= source_adversary_capability_level target_adversary_capability_level))

; proof_adversary_independent: source semantics (matches Coq)
(declare-fun source_proof_adversary_independent () Bool)
(declare-fun target_proof_adversary_independent () Bool)
(assert (= source_proof_adversary_independent target_proof_adversary_independent))

; future_security_complete: source semantics (matches Coq)
(declare-fun source_future_security_complete () Bool)
(declare-fun target_future_security_complete () Bool)
(assert (= source_future_security_complete target_future_security_complete))

; fut_001_quantum_shor_mitigated: translation preserves property (matches Coq: Theorem)
(declare-fun source_fut_001_quantum_shor_mitigated () Bool)
(declare-fun target_fut_001_quantum_shor_mitigated () Bool)
(assert (= source_fut_001_quantum_shor_mitigated target_fut_001_quantum_shor_mitigated))

; fut_001_hybrid_defense: translation preserves property (matches Coq: Theorem)
(declare-fun source_fut_001_hybrid_defense () Bool)
(declare-fun target_fut_001_hybrid_defense () Bool)
(assert (= source_fut_001_hybrid_defense target_fut_001_hybrid_defense))

; fut_002_quantum_grover_mitigated: translation preserves property (matches Coq: Theorem)
(declare-fun source_fut_002_quantum_grover_mitigated () Bool)
(declare-fun target_fut_002_quantum_grover_mitigated () Bool)
(assert (= source_fut_002_quantum_grover_mitigated target_fut_002_quantum_grover_mitigated))

; fut_002_symmetric_quantum_safe: translation preserves property (matches Coq: Theorem)
(declare-fun source_fut_002_symmetric_quantum_safe () Bool)
(declare-fun target_fut_002_symmetric_quantum_safe () Bool)
(assert (= source_fut_002_symmetric_quantum_safe target_fut_002_symmetric_quantum_safe))

; fut_003_ai_exploit_mitigated: translation preserves property (matches Coq: Theorem)
(declare-fun source_fut_003_ai_exploit_mitigated () Bool)
(declare-fun target_fut_003_ai_exploit_mitigated () Bool)
(assert (= source_fut_003_ai_exploit_mitigated target_fut_003_ai_exploit_mitigated))

; fut_003_verified_layer_guarantee: translation preserves property (matches Coq: Theorem)
(declare-fun source_fut_003_verified_layer_guarantee () Bool)
(declare-fun target_fut_003_verified_layer_guarantee () Bool)
(assert (= source_fut_003_verified_layer_guarantee target_fut_003_verified_layer_guarantee))

; fut_004_unknown_cpu_vuln_mitigated: translation preserves property (matches Coq: Theorem)
(declare-fun source_fut_004_unknown_cpu_vuln_mitigated () Bool)
(declare-fun target_fut_004_unknown_cpu_vuln_mitigated () Bool)
(assert (= source_fut_004_unknown_cpu_vuln_mitigated target_fut_004_unknown_cpu_vuln_mitigated))

; fut_004_full_serialize_safe: translation preserves property (matches Coq: Theorem)
(declare-fun source_fut_004_full_serialize_safe () Bool)
(declare-fun target_fut_004_full_serialize_safe () Bool)
(assert (= source_fut_004_full_serialize_safe target_fut_004_full_serialize_safe))

; fut_005_novel_side_channel_mitigated: translation preserves property (matches Coq: Theorem)
(declare-fun source_fut_005_novel_side_channel_mitigated () Bool)
(declare-fun target_fut_005_novel_side_channel_mitigated () Bool)
(assert (= source_fut_005_novel_side_channel_mitigated target_fut_005_novel_side_channel_mitigated))

; fut_005_minimal_surface_defense: translation preserves property (matches Coq: Theorem)
(declare-fun source_fut_005_minimal_surface_defense () Bool)
(declare-fun target_fut_005_minimal_surface_defense () Bool)
(assert (= source_fut_005_minimal_surface_defense target_fut_005_minimal_surface_defense))

; fut_006_emergent_combo_mitigated: translation preserves property (matches Coq: Theorem)
(declare-fun source_fut_006_emergent_combo_mitigated () Bool)
(declare-fun target_fut_006_emergent_combo_mitigated () Bool)
(assert (= source_fut_006_emergent_combo_mitigated target_fut_006_emergent_combo_mitigated))

; fut_006_no_circular_vulnerabilities: translation preserves property (matches Coq: Theorem)
(declare-fun source_fut_006_no_circular_vulnerabilities () Bool)
(declare-fun target_fut_006_no_circular_vulnerabilities () Bool)
(assert (= source_fut_006_no_circular_vulnerabilities target_fut_006_no_circular_vulnerabilities))

; fut_007_apt_mitigated: translation preserves property (matches Coq: Theorem)
(declare-fun source_fut_007_apt_mitigated () Bool)
(declare-fun target_fut_007_apt_mitigated () Bool)
(assert (= source_fut_007_apt_mitigated target_fut_007_apt_mitigated))

; fut_007_forward_secrecy_protection: translation preserves property (matches Coq: Theorem)
(declare-fun source_fut_007_forward_secrecy_protection () Bool)
(declare-fun target_fut_007_forward_secrecy_protection () Bool)
(assert (= source_fut_007_forward_secrecy_protection target_fut_007_forward_secrecy_protection))

; fut_008_pq_signature_secure: translation preserves property (matches Coq: Theorem)
(declare-fun source_fut_008_pq_signature_secure () Bool)
(declare-fun target_fut_008_pq_signature_secure () Bool)
(assert (= source_fut_008_pq_signature_secure target_fut_008_pq_signature_secure))

; fut_008_ml_dsa_87_maximum: translation preserves property (matches Coq: Theorem)
(declare-fun source_fut_008_ml_dsa_87_maximum () Bool)
(declare-fun target_fut_008_ml_dsa_87_maximum () Bool)
(assert (= source_fut_008_ml_dsa_87_maximum target_fut_008_ml_dsa_87_maximum))

; fut_008_slh_dsa_256_secure: translation preserves property (matches Coq: Theorem)
(declare-fun source_fut_008_slh_dsa_256_secure () Bool)
(declare-fun target_fut_008_slh_dsa_256_secure () Bool)
(assert (= source_fut_008_slh_dsa_256_secure target_fut_008_slh_dsa_256_secure))

; fut_009_quantum_network_mitigated: translation preserves property (matches Coq: Theorem)
(declare-fun source_fut_009_quantum_network_mitigated () Bool)
(declare-fun target_fut_009_quantum_network_mitigated () Bool)
(assert (= source_fut_009_quantum_network_mitigated target_fut_009_quantum_network_mitigated))

; fut_009_qkd_option: translation preserves property (matches Coq: Theorem)
(declare-fun source_fut_009_qkd_option () Bool)
(declare-fun target_fut_009_qkd_option () Bool)
(assert (= source_fut_009_qkd_option target_fut_009_qkd_option))

; fut_010_math_truth_fundamental: translation preserves property (matches Coq: Theorem)
(declare-fun source_fut_010_math_truth_fundamental () Bool)
(declare-fun target_fut_010_math_truth_fundamental () Bool)
(assert (= source_fut_010_math_truth_fundamental target_fut_010_math_truth_fundamental))

; fut_010_agi_adversary_handled: translation preserves property (matches Coq: Theorem)
(declare-fun source_fut_010_agi_adversary_handled () Bool)
(declare-fun target_fut_010_agi_adversary_handled () Bool)
(assert (= source_fut_010_agi_adversary_handled target_fut_010_agi_adversary_handled))

; fut_010_proof_assistant_guarantee: translation preserves property (matches Coq: Theorem)
(declare-fun source_fut_010_proof_assistant_guarantee () Bool)
(declare-fun target_fut_010_proof_assistant_guarantee () Bool)
(assert (= source_fut_010_proof_assistant_guarantee target_fut_010_proof_assistant_guarantee))

; fut_010_scaling_defense: translation preserves property (matches Coq: Theorem)
(declare-fun source_fut_010_scaling_defense () Bool)
(declare-fun target_fut_010_scaling_defense () Bool)
(assert (= source_fut_010_scaling_defense target_fut_010_scaling_defense))

; all_future_theorems_proven: translation preserves property (matches Coq: Theorem)
(declare-fun source_all_future_theorems_proven () Bool)
(declare-fun target_all_future_theorems_proven () Bool)
(assert (= source_all_future_theorems_proven target_all_future_theorems_proven))

; Verify all translation validations are satisfiable
(check-sat)
(exit)
